10
0 8 8 8 8 8 8 8 8 8 
8 0 10 7 6 10 7 3 5 10 
8 10 0 10 10 13 10 10 5 10 
8 7 10 0 3 10 8 10 5 2 
8 6 10 3 0 10 1 9 5 20 
8 10 13 10 10 0 5 12 4 10 
8 7 10 8 1 5 0 19 5 11 
8 3 10 10 9 12 19 0 5 17 
8 5 5 5 5 4 5 5 0 5 
8 10 10 2 20 10 11 17 5 0 
